language ESSENCE' 1.0
$ Minion SolverNodes: 72
$ Minion SolverTotalTime: 0.001459
$ Minion SolverTimeOut: 0
$ Savile Row TotalTime: 0.134
letting result be [[0, 0, 0, 0, 0;int(1..5)], 
[0, 0, 0, 1, 0;int(1..5)], 
[0, 1, 0, 0, 0;int(1..5)], 
[0, 0, 0, 0, 0;int(1..5)], 
[0, 0, 0, 0, 1;int(1..5)];int(1..5)]
